
  32    4
  10   10   10   10

   0   0   0   0   0   1 2 
   8   0   1   1   1   1 3 
   4   1   6   0   1   1 4 
   3   7   0   4   3   1 5 
   4   0   6   3   8   1 6 
   4   5   2   4   0   1 7 
   6   4   0   3   4   1 8 
   3   0   4   7   6   1 9 
   2   2   0   3   3   1 10 
   1   0   5   7   4   2 19 11 
   2   0   2   7   5   1 12 
   6   6   0   6   2   1 13 
   9   0   5   4   5   1 14 
   9   2   0   4   3   2 23 15 
  10   5   2   4   0   4 31 30 18 16 
   3   4   5   4   0   1 17 
   6   4   4   0   4   1 20 
   7   0   7   6   1   1 20 
   2   0   2   4   2   1 20 
   6  10   4   5   0   1 21 
   4   3   6   0   7   1 22 
   3   4   3   0   3   1 24 
   3   4   6   1   0   1 24 
   4   0   3   3   4   2 29 25 
   8   1   0   3   5   1 26 
   7   1   4   4   0   1 27 
   3   5   4   0   3   1 28 
   4   4   0   3   6   1 32
   1   7   4   0   7   1 32
   2   4   0   3   5   1 32
  10   1   3   3   0   1 32
   0   0   0   0   0   0 
